4 11 50 1 2
0 200
 1 40.00 50.00 0.00 0.00 0.00 0 0 0 240
 2 25.00 85.00 10.00 20.00 20.00 1 1 1 130 190
 3 22.00 75.00 10.00 30.00 20.00 1 1 1 35 95
 4 22.00 85.00 10.00 10.00 30.00 1 1 1 94 154
 5 20.00 80.00 10.00 40.00 10.00 1 1 1 126 186
 6 20.00 85.00 10.00 20.00 20.00 1 1 1 40 100
 7 18.00 75.00 10.00 20.00 30.00 1 1 1 80 140
 8 15.00 75.00 10.00 20.00 30.00 1 1 1 64 124
 9 15.00 80.00 10.00 10.00 30.00 1 1 1 76 136
 10 10.00 35.00 10.00 20.00 10.00 1 1 1 76 136
 11 10.00 40.00 10.00 30.00 20.00 1 1 1 104 164
 12 8.00 40.00 10.00 40.00 40.00 1 1 1 44 104
 13 8.00 45.00 10.00 20.00 10.00 1 1 1 49 109
 14 5.00 35.00 10.00 10.00 40.00 1 1 1 127 187
 15 5.00 45.00 10.00 10.00 20.00 1 1 1 35 95
 16 2.00 40.00 10.00 20.00 30.00 1 1 1 43 103
 17 0.00 40.00 10.00 20.00 40.00 1 1 1 57 117
 18 0.00 45.00 10.00 20.00 10.00 1 1 1 129 189
 19 44.00 5.00 10.00 20.00 20.00 1 1 1 72 132
 20 42.00 10.00 10.00 40.00 10.00 1 1 1 57 117
 21 42.00 15.00 10.00 10.00 20.00 1 1 1 107 167
 22 40.00 5.00 10.00 10.00 20.00 1 1 1 52 112
 23 40.00 15.00 10.00 40.00 20.00 1 1 1 77 137
 24 38.00 5.00 10.00 30.00 40.00 1 1 1 50 110
 25 38.00 15.00 10.00 10.00 30.00 1 1 1 133 193
 26 35.00 5.00 10.00 20.00 10.00 1 1 1 124 184
 27 95.00 30.00 10.00 30.00 10.00 1 1 1 100 160
 28 95.00 35.00 10.00 20.00 20.00 1 1 1 57 117
 29 92.00 30.00 10.00 10.00 10.00 1 1 1 55 115
 30 90.00 35.00 10.00 10.00 20.00 1 1 1 52 112
 31 88.00 30.00 10.00 10.00 10.00 1 1 1 59 119
 32 88.00 35.00 10.00 20.00 10.00 1 1 1 50 110
 33 87.00 30.00 10.00 10.00 10.00 1 1 1 116 176
 34 85.00 25.00 10.00 10.00 10.00 1 1 1 51 111
 35 85.00 35.00 10.00 30.00 20.00 1 1 1 96 156
 36 67.00 85.00 10.00 20.00 20.00 1 1 1 124 184
 37 65.00 85.00 10.00 40.00 10.00 1 1 1 43 103
 38 65.00 82.00 10.00 10.00 10.00 1 1 1 109 169
 39 62.00 80.00 10.00 30.00 30.00 1 1 1 60 120
 40 60.00 80.00 10.00 10.00 10.00 1 1 1 36 96
 41 60.00 85.00 10.00 30.00 40.00 1 1 1 70 130
 42 58.00 75.00 10.00 20.00 20.00 1 1 1 77 137
 43 55.00 80.00 10.00 10.00 10.00 1 1 1 33 93
 44 55.00 85.00 10.00 20.00 10.00 1 1 1 113 173
 45 55.00 82.00 10.00 10.00 10.00 1 1 1 49 109
 46 20.00 82.00 10.00 10.00 20.00 1 1 1 37 97
 47 18.00 80.00 10.00 10.00 30.00 1 1 1 98 158
 48 2.00 45.00 10.00 10.00 20.00 1 1 1 38 98
 49 42.00 5.00 10.00 10.00 10.00 1 1 1 124 184
 50 42.00 12.00 10.00 10.00 10.00 1 1 1 89 149
 51 72.00 35.00 10.00 30.00 10.00 1 1 1 101 161
